Welcome to the CBC MILP Solver 
Version: 2.10.12 
Build Date: Aug 20 2024 

command line - /opt/homebrew/bin/cbc computational_data/real_data/lp/wine_trial_018_margin.lp seconds 10.0 solve solu computational_data/real_data/solutions/wine_trial_018_margin.sol (default strategy 1)
 CoinLpIO::readLp(): Maximization problem reformulated as minimization
Coin0009I Switching back to maximization to get correct duals etc
seconds was changed from 1e+100 to 10
Continuous objective value is 35.8379 - 0.00 seconds
Cgl0003I 0 fixed, 0 tightened bounds, 77 strengthened rows, 0 substitutions
Cgl0003I 0 fixed, 0 tightened bounds, 73 strengthened rows, 0 substitutions
Cgl0003I 0 fixed, 0 tightened bounds, 61 strengthened rows, 0 substitutions
Cgl0003I 0 fixed, 0 tightened bounds, 34 strengthened rows, 0 substitutions
Cgl0003I 0 fixed, 0 tightened bounds, 21 strengthened rows, 0 substitutions
Cgl0003I 0 fixed, 0 tightened bounds, 16 strengthened rows, 0 substitutions
Cgl0003I 0 fixed, 0 tightened bounds, 4 strengthened rows, 0 substitutions
Cgl0003I 0 fixed, 0 tightened bounds, 2 strengthened rows, 0 substitutions
Cgl0003I 0 fixed, 0 tightened bounds, 2 strengthened rows, 0 substitutions
Cgl0004I processed model has 86 rows, 45 columns (45 integer (45 of which binary)) and 936 elements
Cbc0038I Initial state - 1 integers unsatisfied sum - 0.166667
Cbc0038I Pass   1: suminf.    0.16667 (1) obj. 35.8379 iterations 8
Cbc0038I Solution found of 35.0046
Cbc0038I Before mini branch and bound, 44 integers at bound fixed and 0 continuous
Cbc0038I Full problem 86 rows 45 columns, reduced to 0 rows 0 columns
Cbc0038I Mini branch and bound did not improve solution (0.01 seconds)
Cbc0038I Round again with cutoff of 35.0879
Cbc0038I Reduced cost fixing fixed 11 variables on major pass 2
Cbc0038I Pass   2: suminf.    0.16667 (1) obj. 35.8379 iterations 0
Cbc0038I Pass   3: suminf.    0.08334 (1) obj. 35.0879 iterations 2
Cbc0038I Pass   4: suminf.    0.08334 (1) obj. 35.0879 iterations 2
Cbc0038I Pass   5: suminf.    0.08334 (1) obj. 35.0879 iterations 3
Cbc0038I Pass   6: suminf.    0.41668 (2) obj. 35.0879 iterations 9
Cbc0038I Pass   7: suminf.    0.41668 (2) obj. 35.0879 iterations 8
Cbc0038I Pass   8: suminf.    0.08334 (1) obj. 35.0879 iterations 2
Cbc0038I Pass   9: suminf.    0.16667 (1) obj. 35.8379 iterations 2
Cbc0038I Pass  10: suminf.    0.16667 (1) obj. 35.8379 iterations 13
Cbc0038I Pass  11: suminf.    0.16667 (1) obj. 35.8379 iterations 12
Cbc0038I Pass  12: suminf.    0.08334 (1) obj. 35.0879 iterations 4
Cbc0038I Pass  13: suminf.    0.08334 (1) obj. 35.0879 iterations 17
Cbc0038I Pass  14: suminf.    0.08334 (1) obj. 35.0879 iterations 11
Cbc0038I Pass  15: suminf.    0.16667 (1) obj. 35.8379 iterations 3
Cbc0038I Pass  16: suminf.    0.16667 (1) obj. 35.8379 iterations 26
Cbc0038I Pass  17: suminf.    0.16667 (1) obj. 35.8379 iterations 14
Cbc0038I Pass  18: suminf.    0.08334 (1) obj. 35.0879 iterations 14
Cbc0038I Pass  19: suminf.    0.08334 (1) obj. 35.0879 iterations 12
Cbc0038I Pass  20: suminf.    0.08334 (1) obj. 35.0879 iterations 14
Cbc0038I Pass  21: suminf.    0.08334 (1) obj. 35.0879 iterations 15
Cbc0038I Pass  22: suminf.    0.08334 (1) obj. 35.0879 iterations 10
Cbc0038I Pass  23: suminf.    0.08334 (1) obj. 35.0879 iterations 9
Cbc0038I Pass  24: suminf.    0.16667 (1) obj. 35.8379 iterations 3
Cbc0038I Pass  25: suminf.    0.16667 (1) obj. 35.8379 iterations 21
Cbc0038I Pass  26: suminf.    0.16667 (1) obj. 35.8379 iterations 8
Cbc0038I Pass  27: suminf.    0.08334 (1) obj. 35.0879 iterations 4
Cbc0038I Pass  28: suminf.    0.08334 (1) obj. 35.0879 iterations 9
Cbc0038I Pass  29: suminf.    0.08334 (1) obj. 35.0879 iterations 6
Cbc0038I Pass  30: suminf.    0.08334 (1) obj. 35.0879 iterations 12
Cbc0038I Pass  31: suminf.    0.08334 (1) obj. 35.0879 iterations 11
Cbc0038I No solution found this major pass
Cbc0038I Before mini branch and bound, 32 integers at bound fixed and 0 continuous
Cbc0038I Full problem 86 rows 45 columns, reduced to 21 rows 11 columns
Cbc0038I Mini branch and bound did not improve solution (0.01 seconds)
Cbc0038I After 0.01 seconds - Feasibility pump exiting with objective of 35.0046 - took 0.00 seconds
Cbc0012I Integer solution of 35.004583 found by feasibility pump after 0 iterations and 0 nodes (0.01 seconds)
Cbc0031I 2 added rows had average density of 26
Cbc0013I At root node, 5 cuts changed objective from 35.837916 to 35.004583 in 1 passes
Cbc0014I Cut generator 0 (Probing) - 0 row cuts average 0.0 elements, 0 column cuts (0 active)  in 0.000 seconds - new frequency is -100
Cbc0014I Cut generator 1 (Gomory) - 1 row cuts average 33.0 elements, 0 column cuts (0 active)  in 0.000 seconds - new frequency is 1
Cbc0014I Cut generator 2 (Knapsack) - 2 row cuts average 18.0 elements, 0 column cuts (0 active)  in 0.000 seconds - new frequency is 1
Cbc0014I Cut generator 3 (Clique) - 0 row cuts average 0.0 elements, 0 column cuts (0 active)  in 0.000 seconds - new frequency is -100
Cbc0014I Cut generator 4 (MixedIntegerRounding2) - 0 row cuts average 0.0 elements, 0 column cuts (0 active)  in 0.000 seconds - new frequency is -100
Cbc0014I Cut generator 5 (FlowCover) - 0 row cuts average 0.0 elements, 0 column cuts (0 active)  in 0.000 seconds - new frequency is -100
Cbc0014I Cut generator 6 (TwoMirCuts) - 2 row cuts average 33.0 elements, 0 column cuts (0 active)  in 0.000 seconds - new frequency is 1
Cbc0001I Search completed - best objective 35.004583, took 13 iterations and 0 nodes (0.01 seconds)
Cbc0035I Maximum depth 0, 11 variables fixed on reduced cost
Cuts at root node changed objective from 35.8379 to 35.0046
Probing was tried 1 times and created 0 cuts of which 0 were active after adding rounds of cuts (0.000 seconds)
Gomory was tried 1 times and created 1 cuts of which 0 were active after adding rounds of cuts (0.000 seconds)
Knapsack was tried 1 times and created 2 cuts of which 0 were active after adding rounds of cuts (0.000 seconds)
Clique was tried 1 times and created 0 cuts of which 0 were active after adding rounds of cuts (0.000 seconds)
MixedIntegerRounding2 was tried 1 times and created 0 cuts of which 0 were active after adding rounds of cuts (0.000 seconds)
FlowCover was tried 1 times and created 0 cuts of which 0 were active after adding rounds of cuts (0.000 seconds)
TwoMirCuts was tried 1 times and created 2 cuts of which 0 were active after adding rounds of cuts (0.000 seconds)
ZeroHalf was tried 1 times and created 0 cuts of which 0 were active after adding rounds of cuts (0.000 seconds)

Result - Optimal solution found

Objective value:                35.00458300
Enumerated nodes:               0
Total iterations:               13
Time (CPU seconds):             0.01
Time (Wallclock seconds):       0.01

Total time (CPU seconds):       0.01   (Wallclock seconds):       0.01

